10
0 75 48 63 30 43 16 56 16 37
83 0 96 18 63 67 37 26 87 90
64 37 0 65 16 37 24 100 74 49
19 50 82 0 70 98 87 20 72 69
56 29 51 54 0 49 49 58 56 86
53 22 68 61 28 0 77 84 20 81
26 29 60 83 42 73 0 70 90 80
92 72 95 30 94 98 83 0 80 42
68 76 22 31 72 94 56 52 0 21
77 97 36 84 34 44 57 25 80 0
